CMD:
./solvers/bin/cadical --plain --no-reduce -t 1600 ./data/cnfs//6s119/6s119.66.cnf

c --- [ banner ] -------------------------------------------------------------
c 
c CaDiCaL SAT Solver
c Copyright (c) 2016-2024
c A. Biere, M. Fleury, N. Froleyks, K. Fazekas, F. Pollitt, T. Faller
c JKU Linz, University of Freiburg, TU Wien
c 
c Version 2.1.3 5296d3d2a9bf48c154ab2acb5e44625776d821bf
c g++ (Gentoo 12.3.1_p20230526 p2) 12.3.1 20230526 -Wall -Wextra -O3 -DNDEBUG
c Sat Aug 9 07:26:21 PDT 2025 Linux cedar2.int.cedar.computecanada.ca 5.14.0-362.24.2.el9_3.x86_64 x86_64
c 
c --- [ limit ] --------------------------------------------------------------
c 
c setting time limit to 1600 seconds real time (due to '-t 1600')
c 
c --- [ parsing input ] ------------------------------------------------------
c 
c reading DIMACS file from './data/cnfs//6s119/6s119.66.cnf'
c opening file to read './data/cnfs//6s119/6s119.66.cnf'
c found 'p cnf 7232991 21544727' header
c parsed 21544727 clauses in 3.05 seconds process time
c 
c --- [ options ] ------------------------------------------------------------
c 
c   --compact=false                (different from default 'true')
c   --decompose=false              (different from default 'true')
c   --deduplicate=false            (different from default 'true')
c   --elim=false                   (different from default 'true')
c   --probe=false                  (different from default 'true')
c   --reduce=false                 (different from default 'true')
c   --subsume=false                (different from default 'true')
c   --ternary=false                (different from default 'true')
c   --transred=false               (different from default 'true')
c   --vivify=false                 (different from default 'true')
c 
c --- [ solving ] ------------------------------------------------------------
c 
c time measured in process time since initialization
c 
c  seconds    reductions  redundant   irredundant
c          MB     restarts       trail          variables
c            level   conflicts       glue             remaining
c 
c *  3.05 2806  0 0   0    0    0  0% 0 16307754 3398263 47%
c {  3.86 2842  0 0   0    0    0  0% 0 16307754 3398263 47%
c i  3.90 2843 263 0   0   18   17 55% 1 16307754 3398234 47%
c i  5.01 2865 156 0  20  185  160 57% 2 16307754 3398075 47%
c i  6.09 2866 133 0  22  234  201 58% 3 16307754 3397768 47%
c i  7.70 2867 121 0  31  276  237 59% 3 16307754 3397700 47%
c i 17.96 2868 155 0  68  781  580 64% 9 16307754 3397684 47%
c i 18.22 2868 141 0  68  854  650 63% 8 16307754 3397660 47%
c i 18.26 2868 130 0  68  925  713 63% 8 16307754 3397652 47%
c } 18.52 2868 120 0  68 1001  785 62% 7 16307754 3397652 47%
c [ 18.52 2868  0 0  68 1001  785  0% 0 16307754 3397652 47%
c O 19.36 2868 19071 0  68 1002  786 90% 1 16307754 3397652 47%
c i 23.12 2872 15563 0  69 2280 1995 86% 23 16307754 3397647 47%
c i 24.36 2872 15038 0  69 2327 2039 86% 23 16307754 3397644 47%
c i 25.00 2872 14853 0  69 2347 2055 85% 23 16307754 3397614 47%
c i 29.84 2872 13339 0  69 2510 2204 84% 22 16307754 3397590 47%
c ] 37.70 2872 10307 0  69 3001 2657 83% 19 16307754 3397590 47%
c { 37.70 2872 120 0  69 3001 2657 62% 7 16307754 3397590 47%
c F 37.78 2872 122 0  69 3004 2660 62% 7 16307754 3397583 47%
c i 45.44 2873 125 0  80 3279 2862 65% 7 16307754 3397574 47%
c 
c  seconds     reductions  redundant   irredundant
c          MB      restarts       trail          variables
c             level   conflicts       glue             remaining
c 
c i 56.01 2875 149 0  98 4169 3585 65% 6 16307754 3397573 47%
c i 56.02 2875 149 0  98 4175 3589 65% 6 16307754 3397485 47%
c i 58.17 2875 139 0 106 4455 3842 64% 6 16307754 3363168 46%
c i 58.63 2875 139 0 112 4475 3861 64% 6 16307754 3325584 46%
c i 59.58 2875 142 0 115 4497 3877 64% 7 16307754 3325581 46%
c i 61.99 2875 129 0 132 4940 4281 64% 6 16307754 3325545 46%
c # 76.49 2876 127 0 166 6005 4951 64% 6 16307754 3325545 46%
c i 79.32 2877 125 0 167 6095 5034 64% 6 16307754 3325540 46%
c i 79.34 2877 125 0 167 6096 5034 64% 6 16307754 3325535 46%
c i 79.37 2877 125 0 167 6097 5034 64% 6 16307754 3325530 46%
c i 79.39 2877 125 0 167 6098 5034 64% 6 16307754 3325524 46%
c i 79.46 2877 125 0 167 6111 5044 64% 6 16307754 3325519 46%
c i 79.48 2877 125 0 167 6125 5057 64% 6 16307754 3325514 46%
c i 79.49 2877 125 0 167 6130 5060 64% 6 16307754 3325509 46%
c i 79.50 2877 124 0 167 6134 5062 64% 6 16307754 3325503 46%
c i 79.74 2877 123 0 167 6177 5099 64% 6 16307754 3325498 46%
c i 79.74 2877 123 0 167 6178 5099 64% 6 16307754 3325493 46%
c i 79.74 2877 123 0 167 6179 5099 64% 6 16307754 3325488 46%
c i 79.74 2877 123 0 167 6181 5099 64% 6 16307754 3325477 46%
c i 79.75 2877 123 0 167 6182 5099 64% 6 16307754 3325472 46%
c 
c  seconds     reductions  redundant   irredundant
c          MB      restarts       trail          variables
c             level   conflicts       glue             remaining
c 
c i 79.75 2877 123 0 167 6183 5099 64% 6 16307754 3325467 46%
c i 79.75 2877 123 0 167 6184 5099 64% 6 16307754 3325461 46%
c i 79.75 2877 123 0 167 6186 5100 64% 6 16307754 3325456 46%
c i 79.75 2877 123 0 167 6187 5100 64% 6 16307754 3325451 46%
... skipped 604 lines ...
c i 1485.10 3178 135 0 2579 78562 64240 67% 11 8931108 3213930 44%
c i 1485.11 3178 135 0 2579 78590 64252 67% 11 8931108 3213925 44%
c i 1485.11 3178 135 0 2579 78594 64255 67% 11 8931108 3213919 44%
c i 1485.11 3178 135 0 2579 78597 64257 67% 11 8931108 3213914 44%
c i 1485.12 3178 135 0 2579 78604 64262 67% 11 8931108 3213904 44%
c i 1485.12 3178 135 0 2579 78610 64266 67% 11 8931108 3213897 44%
c i 1485.12 3178 135 0 2579 78614 64269 67% 11 8931108 3213889 44%
c i 1485.12 3178 135 0 2579 78617 64271 67% 11 8931108 3213882 44%
c i 1485.12 3178 135 0 2579 78620 64273 67% 11 8931108 3213873 44%
c i 1485.12 3178 135 0 2579 78623 64275 67% 11 8931108 3213866 44%
c i 1485.12 3178 134 0 2579 78626 64277 67% 11 8931108 3213858 44%
c i 1485.13 3178 134 0 2579 78628 64278 67% 11 8931108 3213852 44%
c 
c   seconds      reductions     redundant    irredundant
c            MB      restarts          trail          variables
c               level     conflicts        glue             remaining
c 
c i 1485.13 3178 134 0 2579 78629 64278 67% 11 8931108 3213846 44%
c i 1485.13 3178 134 0 2579 78630 64278 67% 11 8931108 3213840 44%
c i 1485.13 3178 134 0 2579 78632 64279 67% 11 8931108 3213834 44%
c i 1485.13 3178 134 0 2579 78633 64279 67% 11 8931108 3213828 44%
c i 1485.13 3178 134 0 2579 78636 64280 67% 11 8931108 3213816 44%
c i 1485.13 3178 134 0 2579 78640 64282 67% 11 8931108 3213804 44%
c i 1485.13 3178 134 0 2579 78643 64283 67% 11 8931108 3213792 44%
c i 1485.13 3178 134 0 2579 78645 64284 67% 11 8931108 3213786 44%
c i 1485.13 3178 134 0 2579 78646 64284 67% 11 8931108 3213780 44%
c i 1485.13 3178 134 0 2579 78649 64285 67% 11 8931108 3213767 44%
c i 1517.32 3178 134 0 2708 80551 65769 68% 11 8931108 3213682 44%
c i 1529.69 3178 136 0 2753 81451 66605 68% 11 8931108 3213675 44%
c i 1535.55 3178 135 0 2753 81678 66813 68% 11 8931108 3213674 44%
c i 1556.20 3178 135 0 2793 82571 67571 68% 11 8931108 3213668 44%
c i 1567.40 3178 135 0 2863 83063 67888 68% 11 8931108 3213662 44%
c i 1567.56 3178 135 0 2863 83066 67890 68% 11 8931108 3213656 44%
c i 1567.69 3178 135 0 2864 83075 67895 68% 11 8931108 3213650 44%
c i 1567.71 3178 135 0 2865 83077 67896 68% 11 8931108 3213644 44%
c i 1567.71 3178 135 0 2865 83078 67896 68% 11 8931108 3213631 44%
c i 1567.71 3178 135 0 2866 83079 67896 68% 11 8931108 3213623 44%
c 
c   seconds      reductions     redundant    irredundant
c            MB      restarts          trail          variables
c               level     conflicts        glue             remaining
c 
c i 1567.71 3178 135 0 2866 83081 67897 68% 11 8931108 3213617 44%
c i 1575.09 3178 137 0 2884 83749 68504 68% 11 8931108 3213616 44%
c } 1585.68 3178 140 0 2911 84454 69138 68% 11 8931108 3213616 44%
c ? 1585.68 3178 140 0 2911 84454 69138 68% 11 8931108 3213616 44%
c 
c --- [ result ] -------------------------------------------------------------
c 
c UNKNOWN
c 
c --- [ run-time profiling ] -------------------------------------------------
c 
c process time taken by individual solving procedures
c (percentage relative to process time for solving)
c 
c      1582.62  100.00% search
c       865.73   54.70% stable
c       705.68   44.59% unstable
c        10.42    0.66% walk
c         3.05    0.19% parse
c         0.80    0.05% lucky
c         0.00    0.00% simplify
c   =================================
c      1582.62   99.81% solve
c 
c last line shows process time for solving
c (percentage relative to total process time)
c 
c --- [ statistics ] ---------------------------------------------------------
c 
c chronological:             32518        38.50 %  of conflicts
c conflicts:                 84454        53.36    per second
c decisions:                763382       482.35    per second
c fixed:                   4019375        55.57 %  of all variables
c learned:                   73741        87.31 %  per conflict
c learned_lits:           20291463       100.00 %  learned literals
c minimized:                     0         0.00 %  learned literals
c shrunken:                2529859        12.47 %  learned literals
c minishrunken:            4131639        20.36 %  learned literals
c otfs:                        301         0.36 %  of conflict
c propagations:        13580752048         8.58 M  per second
c rephased:                     12      7037.83    interval
c restarts:                   2911        29.01    interval
c stabilizing:                   3        49.73 %  of conflicts
c subsumed:                   3264         0.02 %  of all clauses
c strengthened:                300         0.00 %  of all clauses
c walked:                        3     28151.33    interval
c 
c seconds are measured in process time for solving
c 
c --- [ resources ] ----------------------------------------------------------
c 
c total process time since initialization:      1585.68    seconds
c total real time since initialization:         1600.01    seconds
c maximum resident set size of process:         3508.84    MB
c 
c --- [ shutting down ] ------------------------------------------------------
c 
c exit 0
